p cnf 138 402
c t mc
4 2 0
4 -3 0
-2 3 -4 0
-7 -5 0
-7 -6 0
5 6 7 0
-10 8 0
-10 -9 0
-8 9 10 0
11 -7 0
11 10 0
7 -10 -11 0
12 4 0
12 11 0
-4 -11 -12 0
-1 -12 -13 0
1 12 -13 0
-1 12 13 0
1 -12 13 0
-15 -7 0
-15 14 0
7 -14 15 0
-12 -16 -17 0
12 16 -17 0
-12 16 17 0
12 -16 17 0
18 15 0
18 -17 0
-15 17 -18 0
-19 13 0
-19 -18 0
-13 18 19 0
-20 -21 -22 0
20 21 -22 0
-20 21 22 0
20 -21 22 0
-2 22 -23 0
2 -22 -23 0
-2 -22 23 0
2 22 23 0
-26 -24 0
-26 -25 0
24 25 26 0
23 26 -27 0
-23 -26 -27 0
23 -26 27 0
-23 26 27 0
9 29 -30 0
-9 -29 -30 0
9 -29 30 0
-9 29 30 0
31 -28 0
31 -30 0
28 30 -31 0
32 27 0
32 -31 0
-27 31 -32 0
-19 32 -33 0
19 -32 -33 0
-19 -32 33 0
19 32 33 0
-35 34 0
-35 29 0
-34 -29 35 0
-33 -35 -36 0
33 35 -36 0
-33 35 36 0
33 -35 36 0
37 22 0
37 1 0
-22 -1 -37 0
-37 10 -38 0
37 -10 -38 0
-37 -10 38 0
37 10 38 0
-40 -3 0
-40 -39 0
3 39 40 0
40 -41 -42 0
-40 41 -42 0
40 41 42 0
-40 -41 42 0
44 -43 0
44 -29 0
43 29 -44 0
-46 7 0
-46 45 0
-7 -45 46 0
44 -46 -47 0
-44 46 -47 0
44 46 47 0
-44 -46 47 0
42 -47 -48 0
-42 47 -48 0
42 47 48 0
-42 -47 48 0
-49 -38 0
-49 -48 0
38 48 49 0
-50 36 0
-50 49 0
-36 -49 50 0
34 51 -52 0
-34 -51 -52 0
34 -51 52 0
-34 51 52 0
-52 53 -54 0
52 -53 -54 0
-52 -53 54 0
52 53 54 0
-54 -43 -55 0
54 43 -55 0
-54 43 55 0
54 -43 55 0
-28 8 -56 0
28 -8 -56 0
-28 -8 56 0
28 8 56 0
57 -21 0
57 -56 0
21 56 -57 0
-58 -55 0
-58 -57 0
55 57 58 0
40 -59 0
-40 -59 0
60 -46 -61 0
-60 46 -61 0
60 46 61 0
-60 -46 61 0
62 -61 0
62 -51 0
61 51 -62 0
63 59 0
63 62 0
-59 -62 -63 0
-64 21 -65 0
64 -21 -65 0
-64 -21 65 0
64 21 65 0
-66 -65 0
-66 16 0
65 -16 66 0
-67 66 0
-67 16 0
-66 -16 67 0
63 67 -68 0
-63 -67 -68 0
63 -67 68 0
-63 67 68 0
-58 -68 -69 0
58 68 -69 0
-58 68 69 0
58 -68 69 0
-50 69 -70 0
50 -69 -70 0
-50 -69 70 0
50 69 70 0
-71 -41 0
-71 -10 0
41 10 71 0
73 72 0
73 41 0
-72 -41 -73 0
74 -23 0
74 -28 0
23 28 -74 0
-76 -43 0
-76 41 0
43 -41 76 0
-77 -75 0
-77 -76 0
75 76 77 0
74 77 -78 0
-74 -77 -78 0
74 -77 78 0
-74 77 78 0
-79 73 0
-79 78 0
-73 -78 79 0
80 -41 0
80 -23 0
41 23 -80 0
-2 -80 -81 0
2 80 -81 0
-2 80 81 0
2 -80 81 0
-82 -21 0
-82 -37 0
21 37 82 0
83 -43 0
83 39 0
43 -39 -83 0
-84 -82 0
-84 83 0
82 -83 84 0
-85 81 0
-85 -84 0
-81 84 85 0
87 45 0
87 -86 0
-45 86 -87 0
89 -88 0
89 16 0
88 -16 -89 0
90 -87 0
90 -89 0
87 89 -90 0
-91 54 0
-91 86 0
-54 -86 91 0
-34 -7 -92 0
34 7 -92 0
-34 7 92 0
34 -7 92 0
93 72 0
93 -41 0
-72 41 -93 0
-94 16 0
-94 -93 0
-16 93 94 0
92 -94 -95 0
-92 94 -95 0
92 94 95 0
-92 -94 95 0
96 -91 0
96 95 0
91 -95 -96 0
98 -30 0
98 97 0
30 -97 -98 0
96 98 -99 0
-96 -98 -99 0
96 -98 99 0
-96 98 99 0
-101 100 0
-101 -95 0
-100 95 101 0
99 101 -102 0
-99 -101 -102 0
99 -101 102 0
-99 101 102 0
-103 90 0
-103 102 0
-90 -102 103 0
85 -103 -104 0
-85 103 -104 0
85 103 104 0
-85 -103 104 0
79 -104 -105 0
-79 104 -105 0
79 104 105 0
-79 -104 105 0
106 -3 0
106 1 0
3 -1 -106 0
-107 -51 0
-107 -16 0
51 16 107 0
-108 60 0
-108 -107 0
-60 107 108 0
109 -106 0
109 -108 0
106 108 -109 0
-29 86 -110 0
29 -86 -110 0
-29 -86 110 0
29 86 110 0
-109 -110 -111 0
109 110 -111 0
-109 110 111 0
109 -110 111 0
112 105 0
112 111 0
-105 -111 -112 0
-113 -71 0
-113 -112 0
71 112 113 0
-114 -44 0
-114 -25 0
44 25 114 0
-115 41 0
-115 1 0
-41 -1 115 0
115 -43 -116 0
-115 43 -116 0
115 43 116 0
-115 -43 116 0
-88 -41 -117 0
88 41 -117 0
-88 41 117 0
88 -41 117 0
117 -16 -118 0
-117 16 -118 0
117 16 118 0
-117 -16 118 0
119 -116 0
119 -118 0
116 118 -119 0
120 -6 0
120 -8 0
6 8 -120 0
-121 -97 0
-121 120 0
97 -120 121 0
122 -119 0
122 -121 0
119 121 -122 0
-123 56 0
-123 -88 0
-56 88 123 0
124 -122 0
124 123 0
122 -123 -124 0
-114 124 -125 0
114 -124 -125 0
-114 -124 125 0
114 124 125 0
126 -88 0
126 29 0
88 -29 -126 0
-127 88 0
-127 117 0
-88 -117 127 0
-92 -127 -128 0
92 127 -128 0
-92 127 128 0
92 -127 128 0
-126 -128 -129 0
126 128 -129 0
-126 128 129 0
126 -128 129 0
-130 21 0
-130 10 0
-21 -10 130 0
131 129 0
131 130 0
-129 -130 -131 0
132 -125 0
132 -131 0
125 131 -132 0
-133 -29 0
-133 9 0
29 -9 133 0
134 2 0
134 133 0
-2 -133 -134 0
-135 134 0
-135 -10 0
-134 10 135 0
136 -132 0
136 135 0
132 -135 -136 0
137 113 0
137 136 0
-113 -136 -137 0
-70 137 -138 0
70 -137 -138 0
-70 -137 138 0
70 137 138 0
77 -13 -75 -131 -3 0
138 -130 -117 -128 113 114 24 0
-128 -111 -92 0
-117 113 -107 48 124 0
-93 -95 29 -2 -37 -25 0
-53 36 61 -107 100 12 41 0
-114 112 87 -59 97 74 -105 0
39 -52 -51 94 76 8 -86 4 34 0
-108 13 -91 -122 0
85 86 40 -116 -121 -70 0
-23 32 26 0
129 137 -62 -38 64 45 36 43 -90 0
-54 -20 -41 -101 -119 -100 52 92 37 -115 0
-54 79 -130 -138 -118 32 0
-59 -10 124 -110 -36 55 54 -117 -79 0
-12 119 43 115 116 93 -7 81 45 88 0
32 138 44 -56 -12 -25 -130 0
-123 132 -53 -20 51 129 93 96 0
-43 121 -109 44 123 -72 0
111 -109 75 56 0
-85 -34 81 26 -27 -41 0
-8 -59 11 -134 0
-74 -65 -3 -137 -30 126 0
33 129 -29 138 66 91 -45 58 -106 -95 0
38 -13 -99 -29 -47 -104 -117 37 -78 0
28 17 55 46 134 0
37 -9 -112 2 -124 0
60 70 14 -6 94 -69 90 0
88 -120 -8 -112 111 -22 0
57 -26 -23 -107 -38 70 0
127 -57 -14 48 89 -117 0
128 -106 -30 -116 20 -76 88 -114 -32 0
-78 -21 49 23 133 42 113 75 6 -38 0
73 24 -9 102 59 0
113 4 18 -92 0
99 8 58 96 127 -119 14 -16 0
102 -110 28 107 -26 13 37 -127 -46 0
-72 132 87 -107 0
27 -112 -24 134 -53 10 -100 -19 0
70 -98 18 48 -8 133 0
138 0
